
  21    0


   0  10 2 4 5 6 7 16 17 18 19 20 
   7   6 15 14 13 11 8 3 
   1   2 10 9 
   3   2 11 8 
   4   2 10 8 
   7   2 9 8 
   4   1 12 
   5   1 21
   1   1 21
  10   1 21
   8   1 21
   8   1 21
   1   1 21
   2   1 21
   4   1 21
   1   1 21
   1   1 21
   9   1 21
   4   1 21
   7   1 21
   0   0 
